\ LP format - for model browsing. Use MPS format to capture full model detail.
Minimize
  100 B0(0) + 100 B1(0) + 100 B2(0) + 100 B3(0) + 100 B4(0) + 100 B5(0)
   + 100 B6(0) + 0 I7(0) + 0 I8(0) + 0 I9(0) + 0 I10(0) + 0 I11(0)
   + 0 I12(0) + 0 I13(0) + 150 B14(12) + 150 B15(12) + 200 B16(12)
   + 250 B17(12) + 150 B18(12) + 150 B19(12) + 200 B20(12) + 250 B21(12)
   + 100 B22(12) + 200 B23(12) + 200 B24(12) + 250 B25(12) + 50 B26(12)
   + 100 B27(12) + 300 B28(12) + 300 B29(12) + 400 B30(12) + 400 B31(12)
   + 200 B32(12) + 400 B34(12) + 400 B35(12) + 100 B36(12) + 100 B37(12)
   + 400 B38(12) + 400 B39(12) + 100 B40(12) + 100 B41(12)
Subject To
 c0: B14(12) + B15(12) + B16(12) + B17(12) = 1
 c1: B18(12) + B19(12) + B20(12) + B21(12) = 1
 c2: B22(12) + B23(12) + B24(12) + B25(12) = 1
 c3: B26(12) + B27(12) + B28(12) + B29(12) = 1
 c4: B30(12) + B31(12) + B32(12) + B33(12) = 1
 c5: B34(12) + B35(12) + B36(12) + B37(12) = 1
 c6: B38(12) + B39(12) + B40(12) + B41(12) = 1
 c7: C42(10) <= 0.8711487519141585
 c8: 0.125 B14(12) + 0.125 B18(12) + 0.125 B22(12) + 0.125 B26(12)
   + 0.125 B30(12) + 0.125 B34(12) + 0.125 B38(12) <= 0.8711487519141585
 c9: 0.1 B14(12) + 0.1 B18(12) + 0.1 B22(12) + 0.1 B26(12) + 0.1 B30(12)
   + 0.1 B34(12) + 0.1 B38(12) <= 0.8711487519141585
 c10: 0.1 B14(12) + 0.1 B18(12) + 0.1 B22(12) + 0.1 B26(12) + 0.1 B30(12)
   + 0.1 B34(12) + 0.1 B38(12) <= 0.8711487519141585
 c11: C42(10) <= 1
 c12: 0.125 B14(12) + 0.125 B18(12) + 0.125 B22(12) + 0.125 B26(12)
   + 0.125 B30(12) + 0.125 B34(12) + 0.125 B38(12) <= 1
 c13: 0.1 B14(12) + 0.1 B18(12) + 0.1 B22(12) + 0.1 B26(12) + 0.1 B30(12)
   + 0.1 B34(12) + 0.1 B38(12) <= 1
 c14: 0.1 B14(12) + 0.1 B18(12) + 0.1 B22(12) + 0.1 B26(12) + 0.1 B30(12)
   + 0.1 B34(12) + 0.1 B38(12) <= 1
 c15: C42(10) >= 0
 c16: 0.125 B14(12) + 0.125 B18(12) + 0.125 B22(12) + 0.125 B26(12)
   + 0.125 B30(12) + 0.125 B34(12) + 0.125 B38(12) >= 0
 c17: 0.1 B14(12) + 0.1 B18(12) + 0.1 B22(12) + 0.1 B26(12) + 0.1 B30(12)
   + 0.1 B34(12) + 0.1 B38(12) >= 0
 c18: 0.1 B14(12) + 0.1 B18(12) + 0.1 B22(12) + 0.1 B26(12) + 0.1 B30(12)
   + 0.1 B34(12) + 0.1 B38(12) >= 0
 c19: C43(10) <= 0.8711487519141585
 c20: 0.125 B15(12) + 0.125 B19(12) + 0.125 B23(12) + 0.125 B27(12)
   + 0.125 B31(12) + 0.125 B35(12) + 0.125 B39(12) <= 0.8711487519141585
 c21: 0.1 B15(12) + 0.1 B19(12) + 0.1 B23(12) + 0.1 B27(12) + 0.1 B31(12)
   + 0.1 B35(12) + 0.1 B39(12) <= 0.8711487519141585
 c22: 0.1 B15(12) + 0.1 B19(12) + 0.1 B23(12) + 0.1 B27(12) + 0.1 B31(12)
   + 0.1 B35(12) + 0.1 B39(12) <= 0.8711487519141585
 c23: C43(10) <= 1
 c24: 0.125 B15(12) + 0.125 B19(12) + 0.125 B23(12) + 0.125 B27(12)
   + 0.125 B31(12) + 0.125 B35(12) + 0.125 B39(12) <= 1
 c25: 0.1 B15(12) + 0.1 B19(12) + 0.1 B23(12) + 0.1 B27(12) + 0.1 B31(12)
   + 0.1 B35(12) + 0.1 B39(12) <= 1
 c26: 0.1 B15(12) + 0.1 B19(12) + 0.1 B23(12) + 0.1 B27(12) + 0.1 B31(12)
   + 0.1 B35(12) + 0.1 B39(12) <= 1
 c27: C43(10) >= 0
 c28: 0.125 B15(12) + 0.125 B19(12) + 0.125 B23(12) + 0.125 B27(12)
   + 0.125 B31(12) + 0.125 B35(12) + 0.125 B39(12) >= 0
 c29: 0.1 B15(12) + 0.1 B19(12) + 0.1 B23(12) + 0.1 B27(12) + 0.1 B31(12)
   + 0.1 B35(12) + 0.1 B39(12) >= 0
 c30: 0.1 B15(12) + 0.1 B19(12) + 0.1 B23(12) + 0.1 B27(12) + 0.1 B31(12)
   + 0.1 B35(12) + 0.1 B39(12) >= 0
 c31: C44(10) <= 0.8711487519141585
 c32: 0.125 B16(12) + 0.125 B20(12) + 0.125 B24(12) + 0.125 B28(12)
   + 0.125 B32(12) + 0.125 B36(12) + 0.125 B40(12) <= 0.8711487519141585
 c33: 0.1 B16(12) + 0.1 B20(12) + 0.1 B24(12) + 0.1 B28(12) + 0.1 B32(12)
   + 0.1 B36(12) + 0.1 B40(12) <= 0.8711487519141585
 c34: 0.1 B16(12) + 0.1 B20(12) + 0.1 B24(12) + 0.1 B28(12) + 0.1 B32(12)
   + 0.1 B36(12) + 0.1 B40(12) <= 0.8711487519141585
 c35: C44(10) <= 1
 c36: 0.125 B16(12) + 0.125 B20(12) + 0.125 B24(12) + 0.125 B28(12)
   + 0.125 B32(12) + 0.125 B36(12) + 0.125 B40(12) <= 1
 c37: 0.1 B16(12) + 0.1 B20(12) + 0.1 B24(12) + 0.1 B28(12) + 0.1 B32(12)
   + 0.1 B36(12) + 0.1 B40(12) <= 1
 c38: 0.1 B16(12) + 0.1 B20(12) + 0.1 B24(12) + 0.1 B28(12) + 0.1 B32(12)
   + 0.1 B36(12) + 0.1 B40(12) <= 1
 c39: C44(10) >= 0
 c40: 0.125 B16(12) + 0.125 B20(12) + 0.125 B24(12) + 0.125 B28(12)
   + 0.125 B32(12) + 0.125 B36(12) + 0.125 B40(12) >= 0
 c41: 0.1 B16(12) + 0.1 B20(12) + 0.1 B24(12) + 0.1 B28(12) + 0.1 B32(12)
   + 0.1 B36(12) + 0.1 B40(12) >= 0
 c42: 0.1 B16(12) + 0.1 B20(12) + 0.1 B24(12) + 0.1 B28(12) + 0.1 B32(12)
   + 0.1 B36(12) + 0.1 B40(12) >= 0
 c43: C45(10) <= 0.8711487519141585
 c44: 0.125 B17(12) + 0.125 B21(12) + 0.125 B25(12) + 0.125 B29(12)
   + 0.125 B33(12) + 0.125 B37(12) + 0.125 B41(12) <= 0.8711487519141585
 c45: 0.1 B17(12) + 0.1 B21(12) + 0.1 B25(12) + 0.1 B29(12) + 0.1 B33(12)
   + 0.1 B37(12) + 0.1 B41(12) <= 0.8711487519141585
 c46: 0.1 B17(12) + 0.1 B21(12) + 0.1 B25(12) + 0.1 B29(12) + 0.1 B33(12)
   + 0.1 B37(12) + 0.1 B41(12) <= 0.8711487519141585
 c47: C45(10) <= 1
 c48: 0.125 B17(12) + 0.125 B21(12) + 0.125 B25(12) + 0.125 B29(12)
   + 0.125 B33(12) + 0.125 B37(12) + 0.125 B41(12) <= 1
 c49: 0.1 B17(12) + 0.1 B21(12) + 0.1 B25(12) + 0.1 B29(12) + 0.1 B33(12)
   + 0.1 B37(12) + 0.1 B41(12) <= 1
 c50: 0.1 B17(12) + 0.1 B21(12) + 0.1 B25(12) + 0.1 B29(12) + 0.1 B33(12)
   + 0.1 B37(12) + 0.1 B41(12) <= 1
 c51: C45(10) >= 0
 c52: 0.125 B17(12) + 0.125 B21(12) + 0.125 B25(12) + 0.125 B29(12)
   + 0.125 B33(12) + 0.125 B37(12) + 0.125 B41(12) >= 0
 c53: 0.1 B17(12) + 0.1 B21(12) + 0.1 B25(12) + 0.1 B29(12) + 0.1 B33(12)
   + 0.1 B37(12) + 0.1 B41(12) >= 0
 c54: 0.1 B17(12) + 0.1 B21(12) + 0.1 B25(12) + 0.1 B29(12) + 0.1 B33(12)
   + 0.1 B37(12) + 0.1 B41(12) >= 0
 qc0: 0.2 B14(12) + 0.2 B18(12) + 0.2 B22(12) + 0.2 B26(12) + 0.2 B30(12)
   + 0.2 B34(12) + 0.2 B38(12) + [ - 2 B14(12) * C42(10)
   - 2 B18(12) * C42(10) - 2 B22(12) * C42(10) - 2 B26(12) * C42(10)
   - 2 B30(12) * C42(10) - 2 B34(12) * C42(10) - 2 B38(12) * C42(10) ] = 0
 qc1: 0.2 B15(12) + 0.2 B19(12) + 0.2 B23(12) + 0.2 B27(12) + 0.2 B31(12)
   + 0.2 B35(12) + 0.2 B39(12) + [ - 2 B15(12) * C43(10)
   - 2 B19(12) * C43(10) - 2 B23(12) * C43(10) - 2 B27(12) * C43(10)
   - 2 B31(12) * C43(10) - 2 B35(12) * C43(10) - 2 B39(12) * C43(10) ] = 0
 qc2: 0.2 B16(12) + 0.2 B20(12) + 0.2 B24(12) + 0.2 B28(12) + 0.2 B32(12)
   + 0.2 B36(12) + 0.2 B40(12) + [ - 2 B16(12) * C44(10)
   - 2 B20(12) * C44(10) - 2 B24(12) * C44(10) - 2 B28(12) * C44(10)
   - 2 B32(12) * C44(10) - 2 B36(12) * C44(10) - 2 B40(12) * C44(10) ] = 0
 qc3: 0.2 B17(12) + 0.2 B21(12) + 0.2 B25(12) + 0.2 B29(12) + 0.2 B33(12)
   + 0.2 B37(12) + 0.2 B41(12) + [ - 2 B17(12) * C45(10)
   - 2 B21(12) * C45(10) - 2 B25(12) * C45(10) - 2 B29(12) * C45(10)
   - 2 B33(12) * C45(10) - 2 B37(12) * C45(10) - 2 B41(12) * C45(10) ] = 0
 gen0: B0(0) = 0 -> B14(12) = 1
 gen1: B0(0) = 1 -> B14(12) = 0
 gen2: B1(0) = 0 -> B18(12) = 1
 gen3: B1(0) = 1 -> B18(12) = 0
 gen4: B2(0) = 0 -> B23(12) = 1
 gen5: B2(0) = 1 -> B23(12) = 0
 gen6: B3(0) = 0 -> B28(12) = 1
 gen7: B3(0) = 1 -> B28(12) = 0
 gen8: B4(0) = 0 -> B32(12) = 1
 gen9: B4(0) = 1 -> B32(12) = 0
 gen10: B5(0) = 0 -> B37(12) = 1
 gen11: B5(0) = 1 -> B37(12) = 0
 gen12: B6(0) = 0 -> B41(12) = 1
 gen13: B6(0) = 1 -> B41(12) = 0
Bounds
 1 <= I7(0) <= 4
 1 <= I8(0) <= 4
 1 <= I9(0) <= 4
 1 <= I10(0) <= 4
 1 <= I11(0) <= 4
 1 <= I12(0) <= 4
 1 <= I13(0) <= 4
Binaries
 B0(0) B1(0) B2(0) B3(0) B4(0) B5(0) B6(0) B14(12) B15(12) B16(12) B17(12)
 B18(12) B19(12) B20(12) B21(12) B22(12) B23(12) B24(12) B25(12) B26(12)
 B27(12) B28(12) B29(12) B30(12) B31(12) B32(12) B33(12) B34(12) B35(12)
 B36(12) B37(12) B38(12) B39(12) B40(12) B41(12)
Generals
 I7(0) I8(0) I9(0) I10(0) I11(0) I12(0) I13(0)
End
